p cnf 30 30
-1 15 0 
-2 7 16 0 
-3 17 0 
-2 7 18 0 
-4 12 19 0 
-1 20 0 
-3 21 0 
-5 14 22 0 
-6 10 23 0 
-1 24 0 
-1 25 0 
-1 26 0 
-2 7 27 0 
-7 2 28 0 
-7 2 23 0 
-4 12 22 0 
-4 12 23 0 
-7 2 22 0 
-7 2 27 0 
-4 12 28 0 
-4 12 27 0 
-4 12 29 0 
-3 27 0 
-8 -7 2 -9 -10 6 16 0 
-11 30 0 
-9 -11 19 0 
-5 14 29 0 
-12 4 23 0 
-13 30 0 
-14 5 28 0 
